c Reduced graph for p11_0 generated by Cyril Grelier
p edge 18 48
v 1 1150
v 2 1150
v 3 900
v 4 900
v 5 650
v 6 650
v 7 400
v 8 400
v 9 280
v 10 280
v 11 80
v 12 80
v 13 60
v 14 60
v 15 40
v 16 40
v 17 30
v 18 30
e 1 4
e 1 6
e 1 8
e 1 10
e 1 11
e 2 3
e 2 5
e 2 7
e 2 9
e 2 12
e 3 5
e 3 7
e 3 9
e 3 14
e 4 6
e 4 8
e 4 10
e 4 13
e 5 7
e 5 9
e 5 16
e 6 8
e 6 10
e 6 15
e 7 9
e 7 18
e 8 10
e 8 17
e 9 11
e 9 13
e 9 15
e 9 17
e 10 12
e 10 14
e 10 16
e 10 18
e 11 13
e 11 15
e 11 17
e 12 14
e 12 16
e 12 18
e 13 15
e 13 17
e 14 16
e 14 18
e 15 17
e 16 18
